NAME: PointSet_Angle_50_5
TYPE: TSP
COMMENT: Points chosen discrete uniformly at random out of ${0, \ldots, 500}^2$.
DIMENSION: 50
EDGE_WEIGHT_TYPE: EUC_2D
NODE_COORD_SECTION
1 38 168
2 72 209
3 80 33
4 403 246
5 196 109
6 376 418
7 41 74
8 106 207
9 101 190
10 104 463
11 352 425
12 24 9
13 394 181
14 67 45
15 13 279
16 5 298
17 193 324
18 6 19
19 358 410
20 266 53
21 265 141
22 218 52
23 462 324
24 259 310
25 260 110
26 18 112
27 281 42
28 368 174
29 471 435
30 219 484
31 461 471
32 282 153
33 295 34
34 173 399
35 190 185
36 198 455
37 72 416
38 6 34
39 486 266
40 344 246
41 376 362
42 104 156
43 151 472
44 76 121
45 153 41
46 351 113
47 12 379
48 12 53
49 414 185
50 198 350
EOF
